title "C2H4 C2H4 with displacement: X Angstroms"

# Geoms:
# jarvist@titanium:~/work/NWCHEM/CDFT$ jkp_extract_geom.awk *neutral.log
# C 0.000000 0.000000 0.663493
# C 0.000000 0.000000 -0.663493
# H 0.000000 0.922503 1.236446
# H 0.000000 -0.922503 1.236446
# H 0.000000 -0.922503 -1.236446
# H 0.000000 0.922503 -1.236446
# jarvist@titanium:~/work/NWCHEM/CDFT$ jkp_extract_geom.awk *cation.log
# C 0.000000 0.000000 0.708908
# C 0.000000 0.000000 -0.708908
# H 0.000000 0.933074 1.266763
# H 0.000000 -0.933074 1.266763
# H 0.000000 -0.933074 -1.266763
# H 0.000000 0.933074 -1.266763

echo "This is a story about an ordinary teddy bear."

#Hellow 64GB / 16 node machine... will you be my friend?
memory stack 750 mb heap 1500 mb global 1500 mb

echo "Thundercats HO!"

geometry mol_neutralgeom units angstroms noautoz noautosym
#First our Ethylene... B3lyp/6-311g* optimisation, Gaussian, using symmetry. JMF 2013-01-28
C 0.000000 0.000000 0.663493
C 0.000000 0.000000 -0.663493
H 0.000000 0.922503 1.236446
H 0.000000 -0.922503 1.236446
H 0.000000 -0.922503 -1.236446
H 0.000000 0.922503 -1.236446
end

geometry mol_chargedgeom
#Now our Cation C2H4...  B3lyp/6-311g* optimisation, Gaussian, using symmetry. JMF 2015-04-15
C X 0.000000 0.708908
C X 0.000000 -0.708908
H X 0.933074 1.266763
H X -0.933074 1.266763
H X -0.933074 -1.266763
H X 0.933074 -1.266763
end

geometry molAB units angstroms noautoz noautosym
#First our Ethylene... B3lyp/6-311g* optimisation, Gaussian, using symmetry. JMF 2013-01-28
C 0.000000 0.000000 0.663493
C 0.000000 0.000000 -0.663493
H 0.000000 0.922503 1.236446
H 0.000000 -0.922503 1.236446
H 0.000000 -0.922503 -1.236446
H 0.000000 0.922503 -1.236446

#Now our Cation C2H4...  B3lyp/6-311g* optimisation, Gaussian, using symmetry. JMF 2015-04-15
C X 0.000000 0.708908
C X 0.000000 -0.708908
H X 0.933074 1.266763
H X -0.933074 1.266763
H X -0.933074 -1.266763
H X 0.933074 -1.266763
end

basis
 #* library 6-31++G*
 * library 6-31++g
end

charge 0 # Start with the neutral molecule 
#Fragments for molA
set geometry mol_neutralgeom
dft
 xc b3lyp
 odft
 mult 1 # multiplicity for neutral config
 vectors input atomic output mol_neutralgeom_neutral.mos
end
task dft #ignore

charge +1 #Now the cation...
dft
 xc b3lyp
 odft
 mult 2 # multiplicity for extra charge
 vectors input atomic output mol_neutralgeom_charged.mos
end
task dft #ignore

#Fragments in charge geom
charge +1
set geometry mol_chargedgeom
dft
 xc b3lyp
 odft
 mult 2 # multiplicity for extra charge
 vectors input atomic output mol_chargedgeom_charged.mos
end
task dft #ignore

charge +0 #System is always +1 charge now...
set geometry mol_chargedgeom
dft
 xc b3lyp
 odft
 mult 1 # multiplicity for charge...
 vectors input atomic output mol_chargedgeom_neutral.mos
end
task dft #ignore

charge +1
#OK; now let's try the big constrained calculation
# First constrained DFT as above
set geometry molAB
dft
 vectors input fragment mol_neutralgeom_neutral.mos mol_chargedgeom_charged.mos output molABcdft.mos #Fragment guess... 

 iterations 50
 print  kinetic_energy
 decomp

 xc b3lyp 
 convergence nolevelshifting
#code for Constrained DFT - see http://www.nwchem-sw.org/index.php/Density_Functional_Theory_for_Molecules#CDFT_--_Constrained_DFT
 odft
 mult 2 
# vectors swap beta 128 127  #unsure how to calculate this for PCBM... 231 alpha electrons      231 beta electrons <- mono PCBM
 
 # CDFT 

cdft 1 6 7 12    charge +1    pop becke
#cdft 1 6 7 12    spin   +1    pop becke

 #cdft 1 6   charge 0.0 #On the Neutral geometry
 #cdft 1 6   spin   0.0

 #cdft 7 12  charge +1.0 #On the Cation geometry
 #cdft 7 12  spin   +1.0
end
set dft:cdft_maxiter 1000
task dft energy

set geometry molAB
dft
 vectors input fragment mol_neutralgeom_charged.mos mol_chargedgeom_neutral.mos output molABcdft.mos #Fragment guess... 

 iterations 50
 print  kinetic_energy
 decomp

 xc b3lyp 
 convergence nolevelshifting
#code for Constrained DFT - see http://www.nwchem-sw.org/index.php/Density_Functional_Theory_for_Molecules#CDFT_--_Constrained_DFT
 odft
 mult 2 
# vectors swap beta 128 127  #unsure how to calculate this for PCBM... 231 alpha electrons      231 beta electrons <- mono PCBM

cdft 1 6 7 12    charge -1   pop becke
#cdft 1 6 7 12    spin   -1   pop becke 

#cdft 1 6   charge +1.0 #On the Neutral geometry
# cdft 1 6   spin   +1.0

# cdft 7 12  charge 0.0 #On the Cation geometry
# cdft 7 12  spin   0.0
end
set dft:cdft_maxiter 1000
task dft energy


charge +1
#Ground state DFT please, for the dimer
set geometry molAB
dft
 mult 2 
 vectors input fragment mol_neutralgeom_neutral.mos mol_chargedgeom_charged.mos output molAB.mos #Fragment guess
 xc b3lyp
end
task dft energy


