%nprocshared=24
#p opt b3lyp/6-311g(d) geom=connectivity

C2H2 Ethylene; Geom Opt

0 1
 C                 -0.67760000    0.00000000    0.00000000
 C                  0.67760000   -0.00000000   -0.00000000
 H                 -1.21260000    0.92664718   -0.00000000
 H                 -1.21260000   -0.92664718    0.00000000
 H                  1.21260000   -0.92664718    0.00000000
 H                  1.21260000    0.92664718   -0.00000000

 1 2 2.0 3 1.0 4 1.0
 2 5 1.0 6 1.0
 3
 4
 5
 6

